LengthSchedulingHorizon=8486;
nAttributes=2;
SetupCosts=[[0, 0], [1, 3], [3, 1]];
SetupTimes=[[0, 0], [2, 3], [3, 0]];
nMachines=2;
MinCap=[0, 0];
MaxCap=[15, 6];

initState=[1, 1];
nShifts=5;
ShiftStartTimes = [[245, 3394, 4575, 4772, 5765], [0, 0, 0, 0, 6132]];
ShiftEndTimes = [[2536, 4513, 4759, 5091, 7801], [0, 0, 0, 0, 7980]];
nJobs=250;
EligibleMachines = [{1, 2}, {1}, {1}, {1}, {2}, {1, 2}, {1}, {1}, {1, 2}, {1, 2}, {2}, {1, 2}, {1}, {2}, {2}, {2}, {1, 2}, {1, 2}, {1, 2}, {1, 2}, {2}, {1, 2}, {1, 2}, {1}, {1, 2}, {1, 2}, {2}, {1, 2}, {1}, {1, 2}, {1, 2}, {1}, {1, 2}, {2}, {1, 2}, {1, 2}, {2}, {1, 2}, {1}, {1, 2}, {1, 2}, {2}, {1, 2}, {2}, {1, 2}, {1, 2}, {2}, {1}, {2}, {1}, {1, 2}, {1}, {1, 2}, {1}, {1}, {1}, {2}, {1}, {1}, {2}, {1}, {2}, {1, 2}, {1, 2}, {1, 2}, {1, 2}, {2}, {1, 2}, {1}, {1, 2}, {1}, {2}, {1}, {2}, {2}, {1}, {1, 2}, {2}, {1, 2}, {2}, {1, 2}, {1}, {1, 2}, {1, 2}, {1}, {1, 2}, {1}, {2}, {1, 2}, {1, 2}, {1}, {1, 2}, {1, 2}, {1, 2}, {1}, {1}, {1, 2}, {2}, {1}, {1, 2}, {1}, {1, 2}, {1, 2}, {1, 2}, {1, 2}, {1, 2}, {1}, {2}, {2}, {1, 2}, {2}, {1, 2}, {1}, {1}, {1, 2}, {1, 2}, {1, 2}, {1, 2}, {1, 2}, {1, 2}, {1, 2}, {1, 2}, {1, 2}, {1, 2}, {1, 2}, {1, 2}, {1, 2}, {1, 2}, {1}, {1, 2}, {2}, {1}, {1, 2}, {2}, {1}, {2}, {1}, {1, 2}, {1}, {1}, {1}, {2}, {2}, {1, 2}, {1}, {2}, {1, 2}, {1, 2}, {1, 2}, {1, 2}, {2}, {2}, {1, 2}, {1}, {1, 2}, {2}, {1}, {1}, {1}, {1, 2}, {1, 2}, {2}, {2}, {1, 2}, {2}, {2}, {1}, {1, 2}, {1, 2}, {1, 2}, {1, 2}, {1, 2}, {2}, {1, 2}, {1}, {1}, {2}, {1, 2}, {1, 2}, {1}, {1}, {1}, {1, 2}, {1, 2}, {1, 2}, {1, 2}, {1, 2}, {2}, {2}, {1, 2}, {1}, {2}, {1}, {1}, {1, 2}, {1, 2}, {1}, {1}, {1, 2}, {1}, {1, 2}, {1}, {1, 2}, {2}, {2}, {1}, {1, 2}, {1, 2}, {1}, {1, 2}, {1, 2}, {1, 2}, {1, 2}, {1}, {1}, {2}, {1, 2}, {2}, {1, 2}, {2}, {1, 2}, {1, 2}, {1, 2}, {1}, {1, 2}, {2}, {1}, {1, 2}, {2}, {1}, {1}, {2}, {1, 2}, {1, 2}, {1}, {1, 2}, {2}, {1, 2}, {1}, {1}, {1}, {2}, {1}, {1, 2}, {1, 2}, {1, 2}, {1}, {1, 2}, {1, 2}, {1, 2}];
EarliestStart=[120, 50, 2, 47, 40, 63, 134, 85, 55, 1, 126, 111, 59, 6, 89, 39, 60, 114, 94, 113, 23, 122, 100, 23, 133, 13, 54, 108, 6, 43, 41, 75, 82, 128, 116, 80, 56, 10, 54, 30, 33, 68, 100, 129, 47, 18, 98, 60, 113, 76, 16, 8, 7, 106, 90, 58, 54, 122, 113, 106, 16, 33, 32, 42, 62, 53, 29, 127, 105, 42, 9, 26, 73, 125, 94, 61, 6, 105, 94, 127, 37, 76, 0, 96, 132, 74, 116, 60, 130, 98, 103, 35, 128, 73, 9, 108, 93, 38, 82, 91, 17, 12, 128, 120, 16, 95, 39, 124, 0, 46, 76, 68, 129, 97, 28, 108, 120, 28, 126, 58, 16, 101, 55, 101, 15, 18, 133, 117, 86, 60, 66, 110, 51, 68, 14, 105, 32, 107, 55, 36, 86, 48, 103, 106, 57, 92, 1, 109, 26, 93, 75, 39, 117, 23, 68, 51, 46, 121, 42, 57, 28, 54, 46, 122, 46, 11, 80, 48, 104, 67, 86, 106, 14, 78, 88, 103, 96, 10, 132, 59, 0, 122, 54, 124, 48, 91, 16, 92, 67, 22, 67, 31, 63, 103, 90, 25, 35, 93, 124, 94, 43, 134, 55, 18, 121, 100, 80, 12, 125, 78, 115, 84, 45, 0, 100, 16, 32, 132, 17, 73, 5, 133, 19, 10, 114, 15, 0, 98, 109, 8, 60, 53, 21, 9, 44, 41, 87, 118, 105, 22, 110, 73, 109, 66, 43, 52, 32, 89, 44, 41];
LatestEnd=[129, 51, 7, 57, 45, 67, 135, 96, 56, 14, 130, 123, 69, 12, 98, 46, 79, 122, 100, 129, 30, 127, 108, 34, 139, 21, 63, 126, 9, 46, 48, 92, 89, 135, 129, 97, 64, 22, 60, 38, 41, 79, 113, 136, 58, 28, 105, 64, 115, 87, 17, 9, 8, 108, 96, 64, 55, 123, 119, 115, 25, 47, 50, 53, 73, 57, 30, 131, 111, 52, 20, 36, 77, 131, 97, 65, 13, 112, 107, 129, 44, 87, 8, 111, 133, 77, 121, 64, 139, 106, 105, 40, 137, 74, 14, 120, 94, 39, 95, 100, 25, 27, 129, 124, 32, 105, 48, 126, 15, 52, 86, 69, 143, 103, 30, 119, 124, 39, 135, 64, 23, 108, 68, 115, 16, 21, 140, 122, 93, 63, 76, 113, 58, 80, 23, 118, 39, 112, 60, 50, 97, 54, 112, 116, 67, 96, 9, 128, 29, 96, 80, 46, 124, 27, 82, 54, 60, 128, 51, 65, 32, 60, 51, 125, 55, 20, 93, 58, 105, 70, 92, 109, 26, 85, 98, 111, 103, 12, 134, 63, 5, 135, 63, 129, 59, 110, 20, 95, 83, 23, 68, 32, 67, 116, 107, 33, 36, 98, 134, 107, 51, 151, 56, 19, 132, 103, 93, 25, 134, 87, 126, 89, 52, 4, 115, 24, 38, 136, 28, 78, 11, 140, 20, 16, 121, 16, 4, 111, 115, 19, 65, 56, 36, 14, 57, 44, 95, 127, 111, 30, 120, 84, 110, 78, 57, 58, 49, 106, 47, 47];
MinTime=[5, 1, 3, 10, 5, 4, 1, 9, 1, 9, 3, 7, 9, 4, 6, 5, 10, 6, 5, 9, 7, 3, 7, 6, 4, 5, 7, 10, 3, 2, 4, 10, 7, 5, 10, 10, 7, 8, 6, 7, 7, 6, 8, 5, 9, 8, 7, 3, 2, 10, 1, 1, 1, 2, 6, 4, 1, 1, 5, 5, 5, 9, 10, 9, 9, 3, 1, 3, 4, 6, 6, 6, 4, 4, 3, 4, 6, 4, 10, 2, 4, 10, 6, 10, 1, 3, 4, 4, 6, 6, 2, 5, 6, 1, 3, 7, 1, 1, 8, 5, 6, 8, 1, 3, 10, 8, 7, 2, 9, 5, 7, 1, 10, 5, 2, 8, 4, 8, 5, 5, 6, 7, 7, 8, 1, 2, 5, 4, 5, 3, 6, 3, 4, 7, 9, 7, 5, 5, 4, 9, 8, 4, 7, 8, 7, 4, 6, 10, 2, 2, 3, 7, 4, 4, 9, 3, 8, 4, 5, 8, 4, 6, 3, 2, 5, 7, 9, 9, 1, 2, 5, 2, 7, 6, 7, 5, 4, 2, 2, 3, 3, 10, 5, 5, 8, 10, 3, 2, 10, 1, 1, 1, 3, 8, 9, 5, 1, 3, 8, 8, 6, 9, 1, 1, 8, 3, 10, 10, 6, 8, 6, 4, 5, 3, 9, 6, 4, 4, 10, 4, 4, 6, 1, 5, 4, 1, 4, 10, 4, 6, 4, 2, 9, 4, 7, 2, 5, 6, 5, 6, 9, 6, 1, 9, 10, 4, 9, 9, 3, 4];
MaxTime=[10, 5, 5, 10, 7, 5, 3, 9, 2, 9, 6, 9, 10, 8, 9, 8, 10, 9, 10, 10, 8, 10, 9, 9, 4, 10, 7, 10, 5, 9, 5, 10, 9, 10, 10, 10, 7, 8, 6, 8, 7, 6, 8, 8, 10, 9, 10, 10, 10, 10, 2, 9, 4, 2, 9, 5, 6, 4, 9, 8, 5, 10, 10, 9, 9, 6, 7, 4, 9, 10, 7, 9, 6, 5, 7, 10, 7, 5, 10, 7, 4, 10, 7, 10, 9, 4, 9, 10, 9, 8, 6, 9, 6, 4, 5, 7, 7, 9, 8, 10, 8, 9, 1, 9, 10, 8, 10, 10, 10, 9, 8, 7, 10, 7, 7, 10, 8, 8, 6, 8, 10, 8, 9, 8, 2, 5, 8, 5, 5, 4, 10, 4, 10, 8, 10, 7, 10, 5, 4, 10, 10, 8, 7, 10, 8, 5, 6, 10, 4, 10, 10, 9, 8, 8, 10, 8, 10, 9, 8, 8, 4, 6, 8, 9, 9, 9, 9, 10, 9, 8, 5, 2, 8, 8, 8, 5, 9, 2, 4, 4, 3, 10, 9, 9, 9, 10, 4, 6, 10, 9, 7, 8, 9, 10, 10, 9, 4, 9, 10, 9, 6, 9, 3, 10, 8, 6, 10, 10, 10, 8, 8, 10, 5, 6, 9, 6, 9, 8, 10, 6, 7, 9, 7, 10, 7, 2, 6, 10, 4, 8, 10, 4, 9, 8, 7, 2, 7, 7, 5, 10, 9, 6, 8, 9, 10, 8, 9, 9, 4, 10];
JobSize=[1, 1, 2, 5, 2, 5, 1, 2, 5, 1, 2, 3, 1, 2, 3, 5, 2, 2, 4, 3, 3, 5, 3, 4, 5, 3, 3, 3, 1, 1, 1, 3, 3, 5, 4, 2, 4, 2, 5, 1, 3, 2, 4, 3, 5, 2, 5, 5, 3, 3, 2, 3, 5, 4, 2, 4, 3, 4, 4, 3, 1, 2, 2, 3, 1, 2, 3, 4, 5, 4, 1, 4, 2, 2, 1, 2, 5, 1, 5, 1, 1, 5, 4, 4, 5, 4, 2, 5, 4, 2, 4, 3, 3, 5, 1, 3, 5, 4, 2, 4, 5, 4, 4, 5, 4, 1, 5, 3, 3, 5, 4, 5, 4, 4, 1, 1, 3, 4, 2, 2, 1, 1, 3, 4, 3, 2, 1, 2, 4, 2, 4, 3, 1, 5, 5, 1, 4, 3, 3, 3, 5, 4, 4, 2, 3, 4, 1, 1, 2, 3, 2, 3, 5, 4, 5, 4, 5, 4, 2, 5, 5, 5, 3, 5, 1, 2, 4, 4, 2, 4, 3, 5, 2, 2, 2, 5, 2, 3, 5, 2, 3, 5, 5, 1, 2, 4, 3, 5, 1, 5, 1, 4, 2, 5, 3, 4, 1, 2, 5, 4, 2, 2, 1, 4, 3, 1, 1, 1, 5, 3, 3, 1, 4, 1, 5, 4, 1, 1, 5, 5, 1, 3, 4, 3, 4, 3, 1, 1, 1, 4, 4, 1, 1, 5, 1, 1, 1, 1, 4, 3, 1, 4, 2, 3, 1, 2, 1, 5, 5, 1];
Attribute=[2, 1, 1, 1, 1, 2, 2, 2, 2, 1, 2, 1, 1, 2, 2, 1, 2, 1, 1, 1, 2, 1, 2, 1, 1, 2, 2, 1, 1, 2, 2, 2, 2, 2, 1, 2, 1, 2, 2, 2, 2, 1, 2, 2, 2, 2, 2, 2, 2, 2, 2, 2, 1, 1, 2, 1, 1, 2, 1, 2, 1, 2, 1, 1, 2, 1, 1, 2, 2, 2, 1, 1, 2, 2, 1, 1, 1, 2, 1, 1, 1, 2, 2, 2, 2, 1, 2, 1, 2, 2, 2, 1, 1, 2, 2, 2, 1, 1, 1, 2, 1, 2, 2, 2, 2, 1, 2, 2, 2, 2, 1, 1, 2, 1, 1, 1, 2, 1, 2, 1, 1, 2, 2, 2, 2, 1, 2, 2, 1, 2, 1, 2, 1, 1, 1, 1, 2, 1, 2, 2, 1, 2, 2, 2, 2, 1, 2, 1, 2, 2, 1, 1, 2, 2, 2, 2, 1, 1, 2, 1, 2, 2, 2, 1, 2, 1, 1, 1, 1, 1, 2, 2, 1, 2, 1, 1, 2, 2, 1, 1, 2, 2, 2, 2, 1, 1, 1, 2, 2, 2, 1, 1, 1, 1, 2, 1, 2, 2, 1, 2, 2, 2, 1, 1, 2, 1, 1, 1, 2, 2, 1, 2, 2, 1, 2, 2, 2, 1, 2, 2, 1, 2, 1, 1, 1, 2, 1, 2, 1, 2, 1, 1, 1, 1, 1, 1, 1, 1, 1, 2, 2, 2, 2, 2, 1, 1, 2, 2, 1, 2];

upper_bound_integer_objective=157500;
mult_factor_total_runtime=4;
mult_factor_finished_toolate=600;
mult_factor_total_setuptimes=0;
mult_factor_total_setupcosts=2;
running_time_bound=1338;
min_duration=1;
max_duration=10;
max_setup_time=3;
max_setup_cost=3;
